SCIP version 8.0.0 [precision: 8 byte] [memory: block] [mode: optimized] [LP solver: SoPlex 6.0.0] [GitHash: a740f0891e]
Copyright (C) 2002-2021 Konrad-Zuse-Zentrum fuer Informationstechnik Berlin (ZIB)

External libraries: 
  SoPlex 6.0.0         Linear Programming Solver developed at Zuse Institute Berlin (soplex.zib.de) [GitHash: 71a5873d]
  CppAD 20180000.0     Algorithmic Differentiation of C++ algorithms developed by B. Bell (github.com/coin-or/CppAD)
  ZLIB 1.2.11          General purpose compression library by J. Gailly and M. Adler (zlib.net)
  GMP 6.2.1            GNU Multiple Precision Arithmetic Library developed by T. Granlund (gmplib.org)
  ZIMPL 3.5.1          Zuse Institute Mathematical Programming Language developed by T. Koch (zimpl.zib.de)
  AMPL/MP 4e2d45c4     AMPL .nl file reader library (github.com/ampl/mp)
  PaPILO 2.0.0         parallel presolve for integer and linear optimization (github.com/scipopt/papilo) [GitHash: 76cafc1]
  bliss 0.73p          Computing Graph Automorphism Groups by T. Junttila and P. Kaski (www.tcs.hut.fi/Software/bliss/)
  Ipopt 3.13.2         Interior Point Optimizer developed by A. Waechter et.al. (github.com/coin-or/Ipopt)

user parameter file <scip.set> not found - using default parameters

read problem <../modeles/4_44.lp>
============

original problem has 360 variables (176 bin, 0 int, 0 impl, 184 cont) and 193 constraints

solve problem
=============

presolving:
(round 1, fast)       4 del vars, 0 del conss, 0 add conss, 384 chg bounds, 0 chg sides, 0 chg coeffs, 0 upgd conss, 0 impls, 4 clqs
(round 2, fast)       4 del vars, 0 del conss, 0 add conss, 384 chg bounds, 0 chg sides, 168 chg coeffs, 0 upgd conss, 0 impls, 4 clqs
   (0.0s) running MILP presolver
   (0.0s) MILP presolver (8 rounds): 0 aggregations, 90 fixings, 0 bound changes
(round 3, medium)     94 del vars, 193 del conss, 153 add conss, 384 chg bounds, 0 chg sides, 168 chg coeffs, 0 upgd conss, 0 impls, 4 clqs
(round 4, exhaustive) 94 del vars, 193 del conss, 153 add conss, 384 chg bounds, 0 chg sides, 168 chg coeffs, 32 upgd conss, 0 impls, 4 clqs
(round 5, exhaustive) 119 del vars, 193 del conss, 153 add conss, 390 chg bounds, 0 chg sides, 168 chg coeffs, 32 upgd conss, 2031 impls, 259 clqs
(round 6, fast)       121 del vars, 201 del conss, 153 add conss, 392 chg bounds, 0 chg sides, 174 chg coeffs, 32 upgd conss, 2031 impls, 259 clqs
(round 7, exhaustive) 121 del vars, 201 del conss, 153 add conss, 392 chg bounds, 0 chg sides, 174 chg coeffs, 40 upgd conss, 2031 impls, 259 clqs
(round 8, exhaustive) 146 del vars, 201 del conss, 153 add conss, 393 chg bounds, 0 chg sides, 174 chg coeffs, 40 upgd conss, 2977 impls, 492 clqs
(round 9, fast)       146 del vars, 216 del conss, 153 add conss, 393 chg bounds, 0 chg sides, 175 chg coeffs, 40 upgd conss, 2977 impls, 492 clqs
   (0.0s) running MILP presolver
   (0.0s) MILP presolver (5 rounds): 0 aggregations, 18 fixings, 0 bound changes
(round 10, medium)     164 del vars, 224 del conss, 153 add conss, 393 chg bounds, 0 chg sides, 175 chg coeffs, 40 upgd conss, 2977 impls, 492 clqs
(round 11, fast)       164 del vars, 228 del conss, 153 add conss, 393 chg bounds, 0 chg sides, 175 chg coeffs, 40 upgd conss, 2977 impls, 492 clqs
   (0.0s) probing cycle finished: starting next cycle
   (0.1s) symmetry computation started: requiring (bin +, int -, cont +), (fixed: bin -, int +, cont -)
   (0.1s) symmetry computation finished: 2 generators found (max: 1500, log10 of symmetry group size: 0.8)
(round 12, exhaustive) 164 del vars, 228 del conss, 154 add conss, 394 chg bounds, 0 chg sides, 175 chg coeffs, 40 upgd conss, 3960 impls, 680 clqs
(round 13, fast)       164 del vars, 228 del conss, 154 add conss, 394 chg bounds, 0 chg sides, 176 chg coeffs, 40 upgd conss, 3960 impls, 680 clqs
   (0.1s) probing cycle finished: starting next cycle
   (0.1s) probing: 51/96 (53.1%) - 50 fixings, 0 aggregations, 4434 implications, 8 bound changes
   (0.1s) probing aborted: 50/50 successive totally useless probings
presolving (14 rounds: 14 fast, 8 medium, 6 exhaustive):
 164 deleted vars, 228 deleted constraints, 154 added constraints, 394 tightened bounds, 0 added holes, 0 changed sides, 176 changed coefficients
 3966 implications, 680 cliques
presolved problem has 196 variables (96 bin, 0 int, 0 impl, 100 cont) and 114 constraints
      8 constraints of type <varbound>
      4 constraints of type <setppc>
    101 constraints of type <linear>
      1 constraints of type <orbitope>
Presolving Time: 0.06

 time | node  | left  |LP iter|LP it/n|mem/heur|mdpt |vars |cons |rows |cuts |sepa|confs|strbr|  dualbound   | primalbound  |  gap   | compl. 
p 0.1s|     1 |     0 |     6 |     - |   locks|   0 | 196 | 114 | 113 |   0 |  0 |   0 |   0 |-2.400122e+01 |-1.000000e+00 |2300.12%| unknown
  0.1s|     1 |     0 |    95 |     - |  8320k |   0 | 196 | 114 | 113 |   0 |  0 |   0 |   0 |-1.991736e+00 |-1.000000e+00 |  99.17%| unknown
r 0.1s|     1 |     0 |    95 |     - |shifting|   0 | 196 | 114 | 113 |   0 |  0 |   0 |   0 |-1.991736e+00 |-1.636364e+00 |  21.72%| unknown
  0.1s|     1 |     0 |    95 |     - |  8330k |   0 | 196 | 114 | 113 |   0 |  0 |   0 |   0 |-1.991736e+00 |-1.636364e+00 |  21.72%| unknown
  0.1s|     1 |     0 |    95 |     - |  8330k |   0 | 196 | 114 | 113 |   0 |  0 |   0 |   0 |-1.991736e+00 |-1.636364e+00 |  21.72%| unknown
  0.1s|     1 |     0 |    97 |     - |  8365k |   0 | 196 | 114 | 108 |   1 |  1 |   0 |   0 |-1.991736e+00 |-1.636364e+00 |  21.72%| unknown
  0.1s|     1 |     0 |    97 |     - |  8366k |   0 | 196 | 114 | 108 |   1 |  1 |   0 |   0 |-1.991736e+00 |-1.636364e+00 |  21.72%| unknown
  0.1s|     1 |     0 |    97 |     - |  8380k |   0 | 196 | 114 | 107 |   1 |  2 |   0 |   0 |-1.991736e+00 |-1.636364e+00 |  21.72%| unknown
  0.1s|     1 |     0 |   101 |     - |  8391k |   0 | 196 | 114 | 109 |   3 |  3 |   0 |   0 |-1.991736e+00 |-1.636364e+00 |  21.72%| unknown
  0.1s|     1 |     0 |   104 |     - |  8475k |   0 | 196 | 114 | 111 |   5 |  4 |   0 |   0 |-1.991736e+00 |-1.636364e+00 |  21.72%| unknown
  0.1s|     1 |     0 |   106 |     - |  8487k |   0 | 196 | 114 | 113 |   7 |  5 |   0 |   0 |-1.991736e+00 |-1.636364e+00 |  21.72%| unknown
r 0.1s|     1 |     0 |   106 |     - |shifting|   0 | 196 | 114 | 113 |   7 |  5 |   0 |   0 |-1.991736e+00 |-1.727273e+00 |  15.31%| unknown
  0.1s|     1 |     0 |   108 |     - |  8499k |   0 | 196 | 114 | 115 |   9 |  6 |   0 |   0 |-1.991736e+00 |-1.727273e+00 |  15.31%| unknown
  0.1s|     1 |     0 |   110 |     - |  8516k |   0 | 196 | 114 | 117 |  11 |  7 |   0 |   0 |-1.991736e+00 |-1.727273e+00 |  15.31%| unknown
  0.1s|     1 |     0 |   112 |     - |  8540k |   0 | 196 | 114 | 119 |  13 |  8 |   0 |   0 |-1.991736e+00 |-1.727273e+00 |  15.31%| unknown
 time | node  | left  |LP iter|LP it/n|mem/heur|mdpt |vars |cons |rows |cuts |sepa|confs|strbr|  dualbound   | primalbound  |  gap   | compl. 
  0.1s|     1 |     0 |   114 |     - |  8553k |   0 | 196 | 114 | 121 |  15 |  9 |   0 |   0 |-1.991736e+00 |-1.727273e+00 |  15.31%| unknown
  0.1s|     1 |     0 |   116 |     - |  8566k |   0 | 196 | 114 | 123 |  17 | 10 |   0 |   0 |-1.991736e+00 |-1.727273e+00 |  15.31%| unknown
r 0.1s|     1 |     0 |   116 |     - |shifting|   0 | 196 | 114 | 123 |  17 | 10 |   0 |   0 |-1.991736e+00 |-1.727273e+00 |  15.31%| unknown
  0.1s|     1 |     0 |   118 |     - |  8603k |   0 | 196 | 114 | 125 |  19 | 11 |   0 |   0 |-1.991736e+00 |-1.727273e+00 |  15.31%| unknown
r 0.1s|     1 |     0 |   145 |     - |intshift|   0 | 196 | 107 | 125 |  19 | 11 |   0 |   0 |-1.991736e+00 |-1.991736e+00 |   0.00%| unknown
  0.1s|     1 |     0 |   145 |     - |  8604k |   0 | 196 | 107 | 125 |  19 | 11 |   0 |   0 |-1.991736e+00 |-1.991736e+00 |   0.00%| unknown

SCIP Status        : problem is solved [optimal solution found]
Solving Time (sec) : 0.10
Solving Nodes      : 1
Primal Bound       : -1.99173553719008e+00 (11 solutions)
Dual Bound         : -1.99173553719008e+00
Gap                : 0.00 %

primal solution (original space):
=================================

objective value:                    -1.99173553719008
y_3,16_                                             1 	(obj:0)
y_1,17_                                             1 	(obj:0)
y_2,17_                                             1 	(obj:0)
y_4,17_                                             1 	(obj:0)
x_2_                               -0.454545454545455 	(obj:1)
x_4_                               -0.537190082644628 	(obj:1)
t_3,17_                                             1 	(obj:0)
t_2,18_                                             1 	(obj:0)
x_3_                               -0.545454545454545 	(obj:1)
t_1,18_                                             1 	(obj:0)
t_4,17_                             0.909090909090911 	(obj:0)
t_4,18_                            0.0909090909090895 	(obj:0)
x_1_                               -0.454545454545455 	(obj:1)

Statistics
==========

SCIP Status        : problem is solved [optimal solution found]
Total Time         :       0.10
  solving          :       0.10
  presolving       :       0.06 (included in solving)
  reading          :       0.00
  copying          :       0.00 (0 times copied the problem)
Original Problem   :
  Problem name     : ../modeles/4_44.lp
  Variables        : 360 (176 binary, 0 integer, 0 implicit integer, 184 continuous)
  Constraints      : 193 initial, 193 maximal
  Objective        : minimize, 4 non-zeros (abs.min = 1, abs.max = 1)
Presolved Problem  :
  Problem name     : t_../modeles/4_44.lp
  Variables        : 196 (96 binary, 0 integer, 0 implicit integer, 100 continuous)
  Constraints      : 114 initial, 114 maximal
  Objective        : minimize, 96 non-zeros (abs.min = 0.0909091, abs.max = 1.09091)
  Nonzeros         : 752 constraint, 251 clique table
Presolvers         :   ExecTime  SetupTime  Calls  FixedVars   AggrVars   ChgTypes  ChgBounds   AddHoles    DelCons    AddCons   ChgSides   ChgCoefs
  boundshift       :       0.00       0.00      0          0          0          0          0          0          0          0          0          0
  convertinttobin  :       0.00       0.00      0          0          0          0          0          0          0          0          0          0
  domcol           :       0.00       0.00      4          0          0          0          0          0          0          0          0          0
  dualagg          :       0.00       0.00      0          0          0          0          0          0          0          0          0          0
  dualcomp         :       0.00       0.00      4          0          0          0          0          0          0          0          0          0
  dualinfer        :       0.00       0.00      0          0          0          0          0          0          0          0          0          0
  dualsparsify     :       0.00       0.00      1          0          0          0          0          0          0          0          0          0
  gateextraction   :       0.00       0.00      0          0          0          0          0          0          0          0          0          0
  implics          :       0.00       0.00      8          0          0          0          0          0          0          0          0          0
  inttobinary      :       0.00       0.00      0          0          0          0          0          0          0          0          0          0
  milp             :       0.01       0.00      2        108          0          0          0          0        193        153          0          0
  qpkktref         :       0.00       0.00      0          0          0          0          0          0          0          0          0          0
  redvub           :       0.00       0.00      0          0          0          0          0          0          0          0          0          0
  sparsify         :       0.00       0.00      2          0          0          0          0          0          0          0          0          0
  stuffing         :       0.00       0.00      0          0          0          0          0          0          0          0          0          0
  trivial          :       0.00       0.00     14          0          0          0          0          0          0          0          0          0
  tworowbnd        :       0.00       0.00      0          0          0          0          0          0          0          0          0          0
  dualfix          :       0.00       0.00     14          0          0          0          0          0          0          0          0          0
  genvbounds       :       0.00       0.00      0          0          0          0          0          0          0          0          0          0
  probing          :       0.04       0.00      4         50          0          0          8          0          0          0          0          0
  pseudoobj        :       0.00       0.00      0          0          0          0          0          0          0          0          0          0
  symmetry         :       0.00       0.00      1          0          0          0          0          0          0          1          0          0
  vbounds          :       0.00       0.00      4          0          0          0          0          0          0          0          0          0
  varbound         :       0.00       0.00     16          0          0          0          0          0         28          0          0          8
  setppc           :       0.00       0.00     21          0          0          0          0          0          0          0          0          0
  linear           :       0.00       0.00     20          2          4          0        386          0          7          0          0        168
  orbitope         :       0.00       0.00      1          0          0          0          0          0          0          0          0          0
  benders          :       0.00       0.00      0          0          0          0          0          0          0          0          0          0
  components       :       0.00       0.00      1          0          0          0          0          0          0          0          0          0
  root node        :          -          -      -          7          -          -         14          -          -          -          -          -
Constraints        :     Number  MaxNumber  #Separate #Propagate    #EnfoLP    #EnfoRelax  #EnfoPS    #Check   #ResProp    Cutoffs    DomReds       Cuts    Applied      Conss   Children
  benderslp        :          0          0          0          0          0          0          0         32          0          0          0          0          0          0          0
  integral         :          0          0          0          0          0          0          0         32          0          0          0          0          0          0          0
  varbound         :          8          8         11       1179          0          0          0         26          0          0          7          0          0          0          0
  setppc           :          4          4         11       1281          0          0          0         26          0          0          0          0          0          0          0
  linear           :        101        101         11       1284          0          0          0         15          0         64          0          0          0          0          0
  orbitope         :          1          1          0        239          0          0          0         11          0          0          0          0          0          0          0
  benders          :          0          0          0          0          0          0          0         12          0          0          0          0          0          0          0
  countsols        :          0          0          0          0          0          0          0         12          0          0          0          0          0          0          0
  components       :          0          0          0          0          0          0          0          0          0          0          0          0          0          0          0
Constraint Timings :  TotalTime  SetupTime   Separate  Propagate     EnfoLP     EnfoPS     EnfoRelax   Check    ResProp    SB-Prop
  benderslp        :       0.00       0.00       0.00       0.00       0.00       0.00       0.00       0.00       0.00       0.00
  integral         :       0.00       0.00       0.00       0.00       0.00       0.00       0.00       0.00       0.00       0.00
  varbound         :       0.00       0.00       0.00       0.00       0.00       0.00       0.00       0.00       0.00       0.00
  setppc           :       0.00       0.00       0.00       0.00       0.00       0.00       0.00       0.00       0.00       0.00
  linear           :       0.02       0.00       0.00       0.02       0.00       0.00       0.00       0.00       0.00       0.00
  orbitope         :       0.00       0.00       0.00       0.00       0.00       0.00       0.00       0.00       0.00       0.00
  benders          :       0.00       0.00       0.00       0.00       0.00       0.00       0.00       0.00       0.00       0.00
  countsols        :       0.00       0.00       0.00       0.00       0.00       0.00       0.00       0.00       0.00       0.00
  components       :       0.00       0.00       0.00       0.00       0.00       0.00       0.00       0.00       0.00       0.00
Propagators        : #Propagate   #ResProp    Cutoffs    DomReds
  dualfix          :          3          0          0          0
  genvbounds       :          0          0          0          0
  nlobbt           :          0          0          0          0
  obbt             :          0          0          0          0
  probing          :          0          0          0          0
  pseudoobj        :         22          0          0          0
  redcost          :         16          0          0          7
  rootredcost      :          0          0          0          0
  symmetry         :          0          0          0          0
  vbounds          :        120          0          0          0
Propagator Timings :  TotalTime  SetupTime   Presolve  Propagate    ResProp    SB-Prop
  dualfix          :       0.00       0.00       0.00       0.00       0.00       0.00
  genvbounds       :       0.00       0.00       0.00       0.00       0.00       0.00
  nlobbt           :       0.00       0.00       0.00       0.00       0.00       0.00
  obbt             :       0.00       0.00       0.00       0.00       0.00       0.00
  probing          :       0.04       0.00       0.04       0.00       0.00       0.00
  pseudoobj        :       0.00       0.00       0.00       0.00       0.00       0.00
  redcost          :       0.00       0.00       0.00       0.00       0.00       0.00
  rootredcost      :       0.00       0.00       0.00       0.00       0.00       0.00
  symmetry         :       0.00       0.00       0.00       0.00       0.00       0.00
  vbounds          :       0.00       0.00       0.00       0.00       0.00       0.00
Orbital fixing     :
  vars fixed to 0  :          0
  vars fixed to 1  :          0
Conflict Analysis  :       Time      Calls    Success    DomReds  Conflicts   Literals    Reconvs ReconvLits   Dualrays   Nonzeros   LP Iters   (pool size: [--,--])
  propagation      :       0.00          0          0          -          0        0.0          0        0.0          -          -          -
  infeasible LP    :       0.00          0          0          -          0        0.0          0        0.0          0        0.0          0
  bound exceed. LP :       0.00          0          0          -          0        0.0          0        0.0          0        0.0          0
  strong branching :       0.00          0          0          -          0        0.0          0        0.0          -          -          0
  pseudo solution  :       0.00          0          0          -          0        0.0          0        0.0          -          -          -
  applied globally :       0.00          -          -          0          0        0.0          -          -          0          -          -
  applied locally  :          -          -          -          0          0        0.0          -          -          0          -          -
Separators         :   ExecTime  SetupTime      Calls    Cutoffs    DomReds       Cuts    Applied      Conss
  cut pool         :       0.00                    21          -          -         52          -          -    (maximal pool size: 145)
  aggregation      :       0.01       0.00         11          0          0         90         18          0
  > cmir           :          -          -          -          -          -          -         18          -
  > flowcover      :          -          -          -          -          -          -          0          -
  > knapsackcover  :          -          -          -          -          -          -          0          -
  cgmip            :       0.00       0.00          0          0          0          0          0          0
  clique           :       0.00       0.00         11          0          0          4          0          0
  closecuts        :       0.00       0.00          0          0          0          0          0          0
  convexproj       :       0.00       0.00          0          0          0          0          0          0
  disjunctive      :       0.00       0.00          0          0          0          0          0          0
  eccuts           :       0.00       0.00          0          0          0          0          0          0
  gauge            :       0.00       0.00          0          0          0          0          0          0
  gomory           :       0.00       0.00         10          0          0         34          1          0
  > gomorymi       :          -          -          -          -          -          -          1          -
  > strongcg       :          -          -          -          -          -          -          0          -
  impliedbounds    :       0.00       0.00         11          0          0         16          0          0
  interminor       :       0.00       0.00          0          0          0          0          0          0
  intobj           :       0.00       0.00          0          0          0          0          0          0
  mcf              :       0.00       0.00          1          0          0          0          0          0
  minor            :       0.00       0.00          0          0          0          0          0          0
  mixing           :       0.00       0.00         11          0          0          0          0          0
  oddcycle         :       0.00       0.00          0          0          0          0          0          0
  rapidlearning    :       0.00       0.00          0          0          0          0          0          0
  rlt              :       0.00       0.00         10          0          0          0          0          0
  zerohalf         :       0.00       0.00         11          0          0          1          0          0
Cutselectors       :   ExecTime  SetupTime
  hybrid           :       0.00       0.00
Pricers            :   ExecTime  SetupTime      Calls       Vars
  problem variables:       0.00          -          0          0
Branching Rules    :   ExecTime  SetupTime   BranchLP  BranchExt   BranchPS    Cutoffs    DomReds       Cuts      Conss   Children
  allfullstrong    :       0.00       0.00          0          0          0          0          0          0          0          0
  cloud            :       0.00       0.00          0          0          0          0          0          0          0          0
  distribution     :       0.00       0.00          0          0          0          0          0          0          0          0
  fullstrong       :       0.00       0.00          0          0          0          0          0          0          0          0
  inference        :       0.00       0.00          0          0          0          0          0          0          0          0
  leastinf         :       0.00       0.00          0          0          0          0          0          0          0          0
  lookahead        :       0.00       0.00          0          0          0          0          0          0          0          0
  mostinf          :       0.00       0.00          0          0          0          0          0          0          0          0
  multaggr         :       0.00       0.00          0          0          0          0          0          0          0          0
  nodereopt        :       0.00       0.00          0          0          0          0          0          0          0          0
  pscost           :       0.00       0.00          0          0          0          0          0          0          0          0
  random           :       0.00       0.00          0          0          0          0          0          0          0          0
  relpscost        :       0.00       0.00          0          0          0          0          0          0          0          0
  vanillafullstrong:       0.00       0.00          0          0          0          0          0          0          0          0
Primal Heuristics  :   ExecTime  SetupTime      Calls      Found       Best
  LP solutions     :       0.00          -          -          0          0
  relax solutions  :       0.00          -          -          0          0
  pseudo solutions :       0.00          -          -          0          0
  strong branching :       0.00          -          -          0          0
  actconsdiving    :       0.00       0.00          0          0          0
  adaptivediving   :       0.00       0.00          0          0          0
  alns             :       0.00       0.00          0          0          0
  bound            :       0.00       0.00          0          0          0
  clique           :       0.00       0.00          1          0          0
  coefdiving       :       0.00       0.00          0          0          0
  completesol      :       0.00       0.00          0          0          0
  conflictdiving   :       0.00       0.00          0          0          0
  crossover        :       0.00       0.00          0          0          0
  dins             :       0.00       0.00          0          0          0
  distributiondivin:       0.00       0.00          0          0          0
  dps              :       0.00       0.00          0          0          0
  dualval          :       0.00       0.00          0          0          0
  farkasdiving     :       0.00       0.00          0          0          0
  feaspump         :       0.00       0.00          0          0          0
  fixandinfer      :       0.00       0.00          0          0          0
  fracdiving       :       0.00       0.00          0          0          0
  gins             :       0.00       0.00          0          0          0
  guideddiving     :       0.00       0.00          0          0          0
  indicator        :       0.00       0.00          0          0          0
  intdiving        :       0.00       0.00          0          0          0
  intshifting      :       0.00       0.00          1          1          1
  linesearchdiving :       0.00       0.00          0          0          0
  localbranching   :       0.00       0.00          0          0          0
  locks            :       0.00       0.00          1          1          1
  lpface           :       0.00       0.00          0          0          0
  mpec             :       0.00       0.00          0          0          0
  multistart       :       0.00       0.00          0          0          0
  mutation         :       0.00       0.00          0          0          0
  nlpdiving        :       0.00       0.00          0          0          0
  objpscostdiving  :       0.00       0.00          0          0          0
  octane           :       0.00       0.00          0          0          0
  ofins            :       0.00       0.00          0          0          0
  oneopt           :       0.00       0.00          4          0          0
  padm             :       0.00       0.00          0          0          0
  proximity        :       0.00       0.00          0          0          0
  pscostdiving     :       0.00       0.00          0          0          0
  randrounding     :       0.00       0.00         11          0          0
  rens             :       0.00       0.00          0          0          0
  reoptsols        :       0.00       0.00          0          0          0
  repair           :       0.00       0.00          0          0          0
  rins             :       0.00       0.00          0          0          0
  rootsoldiving    :       0.00       0.00          0          0          0
  rounding         :       0.00       0.00         11          0          0
  shiftandpropagate:       0.00       0.00          0          0          0
  shifting         :       0.00       0.00         11          9          3
  simplerounding   :       0.00       0.00          0          0          0
  subnlp           :       0.00       0.00          0          0          0
  trivial          :       0.00       0.00          2          0          0
  trivialnegation  :       0.00       0.00          0          0          0
  trustregion      :       0.00       0.00          0          0          0
  trysol           :       0.00       0.00          0          0          0
  twoopt           :       0.00       0.00          0          0          0
  undercover       :       0.00       0.00          0          0          0
  vbounds          :       0.00       0.00          0          0          0
  veclendiving     :       0.00       0.00          0          0          0
  zeroobj          :       0.00       0.00          0          0          0
  zirounding       :       0.00       0.00          1          0          0
  other solutions  :          -          -          -          0          -
Diving (single)    :      Calls      Nodes   LP Iters Backtracks  Conflicts   MinDepth   MaxDepth   AvgDepth  RoundSols  NLeafSols  MinSolDpt  MaxSolDpt  AvgSolDpt
  actconsdiving    :          0          -          -          -          -          -          -          -          -          -          -          -          -
  coefdiving       :          0          -          -          -          -          -          -          -          -          -          -          -          -
  conflictdiving   :          0          -          -          -          -          -          -          -          -          -          -          -          -
  distributiondivin:          0          -          -          -          -          -          -          -          -          -          -          -          -
  farkasdiving     :          0          -          -          -          -          -          -          -          -          -          -          -          -
  fracdiving       :          0          -          -          -          -          -          -          -          -          -          -          -          -
  guideddiving     :          0          -          -          -          -          -          -          -          -          -          -          -          -
  linesearchdiving :          0          -          -          -          -          -          -          -          -          -          -          -          -
  pscostdiving     :          0          -          -          -          -          -          -          -          -          -          -          -          -
  veclendiving     :          0          -          -          -          -          -          -          -          -          -          -          -          -
Diving (adaptive)  :      Calls      Nodes   LP Iters Backtracks  Conflicts   MinDepth   MaxDepth   AvgDepth  RoundSols  NLeafSols  MinSolDpt  MaxSolDpt  AvgSolDpt
  actconsdiving    :          0          -          -          -          -          -          -          -          -          -          -          -          -
  coefdiving       :          0          -          -          -          -          -          -          -          -          -          -          -          -
  conflictdiving   :          0          -          -          -          -          -          -          -          -          -          -          -          -
  distributiondivin:          0          -          -          -          -          -          -          -          -          -          -          -          -
  farkasdiving     :          0          -          -          -          -          -          -          -          -          -          -          -          -
  fracdiving       :          0          -          -          -          -          -          -          -          -          -          -          -          -
  guideddiving     :          0          -          -          -          -          -          -          -          -          -          -          -          -
  linesearchdiving :          0          -          -          -          -          -          -          -          -          -          -          -          -
  pscostdiving     :          0          -          -          -          -          -          -          -          -          -          -          -          -
  veclendiving     :          0          -          -          -          -          -          -          -          -          -          -          -          -
Neighborhoods      :      Calls  SetupTime  SolveTime SolveNodes       Sols       Best       Exp3  EpsGreedy        UCB TgtFixRate  Opt  Inf Node Stal  Sol  Usr Othr Actv
  rens             :          0       0.00       0.00          0          0          0    0.00000   -1.00000    1.00000      0.900    0    0    0    0    0    0    0    1
  rins             :          0       0.00       0.00          0          0          0    0.00000   -1.00000    1.00000      0.900    0    0    0    0    0    0    0    1
  mutation         :          0       0.00       0.00          0          0          0    0.00000   -1.00000    1.00000      0.900    0    0    0    0    0    0    0    1
  localbranching   :          0       0.00       0.00          0          0          0    0.00000   -1.00000    1.00000      0.900    0    0    0    0    0    0    0    1
  crossover        :          0       0.00       0.00          0          0          0    0.00000   -1.00000    1.00000      0.900    0    0    0    0    0    0    0    1
  proximity        :          0       0.00       0.00          0          0          0    0.00000   -1.00000    1.00000      0.900    0    0    0    0    0    0    0    1
  zeroobjective    :          0       0.00       0.00          0          0          0    0.00000   -1.00000    1.00000      0.900    0    0    0    0    0    0    0    1
  dins             :          0       0.00       0.00          0          0          0    0.00000   -1.00000    1.00000      0.900    0    0    0    0    0    0    0    1
  trustregion      :          0       0.00       0.00          0          0          0    0.00000   -1.00000    1.00000      0.900    0    0    0    0    0    0    0    0
LP                 :       Time      Calls Iterations  Iter/call   Iter/sec  Time-0-It Calls-0-It    ItLimit
  primal LP        :       0.00          1          0       0.00          -       0.00          1
  dual LP          :       0.00         16        112      10.18          -       0.00          5
  lex dual LP      :       0.00          0          0       0.00          -
  barrier LP       :       0.00          0          0       0.00          -       0.00          0
  resolve instable :       0.00          0          0       0.00          -
  diving/probing LP:       0.00          2         33      16.50          -
  strong branching :       0.00          0          0       0.00          -          -          -          0
    (at root node) :          -          0          0       0.00          -
  conflict analysis:       0.00          0          0       0.00          -
B&B Tree           :
  number of runs   :          1
  nodes            :          1 (0 internal, 1 leaves)
  feasible leaves  :          0
  infeas. leaves   :          0
  objective leaves :          0
  nodes (total)    :          1 (0 internal, 1 leaves)
  nodes left       :          0
  max depth        :          0
  max depth (total):          0
  backtracks       :          0 (0.0%)
  early backtracks :          0 (0.0%)
  nodes exc. ref.  :          0 (0.0%)
  delayed cutoffs  :          0
  repropagations   :          0 (0 domain reductions, 0 cutoffs)
  avg switch length:       2.00
  switching time   :       0.00
Estim. Tree Size   :          1
Estimation Tree    : 1 nodes (1 visited, 0 internal, 1 leaves, 0 open), weight: 1.0000 completed 1.0000
Estimations        :      estim      value      trend resolution     smooth
  wbe              :          1          -          -          -          -
  tree-profile     :         -1          -          -          -          -
  gap              :          1    1.00000    1.00000          1          1
  tree-weight      :          1    1.00000    1.00000          1          1
  leaf-frequency   :          1    0.50000    1.00000          1          1
  ssg              :          1    0.00000   -1.00000          1          1
  open-nodes       :          1    0.00000    0.00000          1          1
Root Node          :
  First LP value   : -1.99173553719008e+00
  First LP Iters   :         89 (140822.78 Iter/sec)
  First LP Time    :       0.00
  Final Dual Bound : -1.99173553719008e+00
  Final Root Iters :        112
  Root LP Estimate :                     -
Solution           :
  Solutions found  :         11 (5 improvements)
  First Solution   : -1.00000000000000e+00   (in run 1, after 1 nodes, 0.06 seconds, depth 5, found by <locks>)
  Gap First Sol.   :    2300.12 %
  Gap Last Sol.    :       0.00 %
  Primal Bound     : -1.99173553719008e+00   (in run 1, after 1 nodes, 0.09 seconds, depth 0, found by <intshifting>)
  Dual Bound       : -1.99173553719008e+00
  Gap              :       0.00 %
Integrals          :      Total       Avg%
  primal-dual      :       7.03      73.23
  primal-ref       :          -          - (not evaluated)
  dual-ref         :          -          - (not evaluated)
